p cnf 148 366
-1 0
-2 0
-3 0
4 0
5 6 7 8 0
-5 -6 0
-5 -7 0
-5 -8 0
-6 -7 0
-6 -8 0
-7 -8 0
-1 9 0
1 -9 0
-2 10 0
2 -10 0
-3 11 0
3 -11 0
-4 12 0
4 -12 0
-5 13 0
5 -13 0
-6 14 0
6 -14 0
-7 15 0
7 -15 0
-8 16 0
8 -16 0
-1 17 0
1 -17 0
-2 18 0
2 -18 0
-3 19 0
3 -19 0
-4 20 0
4 -20 0
-5 21 0
5 -21 0
-6 22 0
6 -22 0
-7 23 0
7 -23 0
-8 24 0
8 -24 0
25 26 27 28 0
-25 -26 0
-25 -27 0
-25 -28 0
-26 -27 0
-26 -28 0
-27 -28 0
29 30 31 32 0
-29 -30 0
-29 -31 0
-29 -32 0
-30 -31 0
-30 -32 0
-31 -32 0
33 34 35 36 0
-33 -34 0
-33 -35 0
-33 -36 0
-34 -35 0
-34 -36 0
-35 -36 0
37 38 39 40 0
-37 -38 0
-37 -39 0
-37 -40 0
-38 -39 0
-38 -40 0
-39 -40 0
41 42 43 44 0
-41 -42 0
-41 -43 0
-41 -44 0
-42 -43 0
-42 -44 0
-43 -44 0
45 46 47 48 0
-45 -46 0
-45 -47 0
-45 -48 0
-46 -47 0
-46 -48 0
-47 -48 0
-28 -25 33 0
-28 -33 25 0
-28 -26 34 0
-28 -34 26 0
-28 -27 35 0
-28 -35 27 0
-28 -28 36 0
-28 -36 28 0
-28 -29 37 0
-28 -37 29 0
-28 -30 38 0
-28 -38 30 0
-28 -31 39 0
-28 -39 31 0
-28 -32 40 0
-28 -40 32 0
-28 -25 41 0
-28 -41 25 0
-28 -26 42 0
-28 -42 26 0
-28 -27 43 0
-28 -43 27 0
-28 -28 44 0
-28 -44 28 0
-28 -29 45 0
-28 -45 29 0
-28 -30 46 0
-28 -46 30 0
-28 -31 47 0
-28 -47 31 0
-28 -32 48 0
-28 -48 32 0
28 -36 0
28 -44 0
49 50 51 52 0
-49 -50 0
-49 -51 0
-49 -52 0
-50 -51 0
-50 -52 0
-51 -52 0
53 54 55 56 0
-53 -54 0
-53 -55 0
-53 -56 0
-54 -55 0
-54 -56 0
-55 -56 0
57 58 59 60 0
-57 -58 0
-57 -59 0
-57 -60 0
-58 -59 0
-58 -60 0
-59 -60 0
61 62 63 64 0
-61 -62 0
-61 -63 0
-61 -64 0
-62 -63 0
-62 -64 0
-63 -64 0
65 66 67 68 0
-65 -66 0
-65 -67 0
-65 -68 0
-66 -67 0
-66 -68 0
-67 -68 0
69 70 71 72 0
-69 -70 0
-69 -71 0
-69 -72 0
-70 -71 0
-70 -72 0
-71 -72 0
-52 -49 57 0
-52 -57 49 0
-52 -50 58 0
-52 -58 50 0
-52 -51 59 0
-52 -59 51 0
-52 -52 60 0
-52 -60 52 0
-52 -53 61 0
-52 -61 53 0
-52 -54 62 0
-52 -62 54 0
-52 -55 63 0
-52 -63 55 0
-52 -56 64 0
-52 -64 56 0
-52 -49 65 0
-52 -65 49 0
-52 -50 66 0
-52 -66 50 0
-52 -51 67 0
-52 -67 51 0
-52 -52 68 0
-52 -68 52 0
-52 -53 69 0
-52 -69 53 0
-52 -54 70 0
-52 -70 54 0
-52 -55 71 0
-52 -71 55 0
-52 -56 72 0
-52 -72 56 0
52 -60 0
52 -68 0
73 0
-74 0
-75 0
-76 0
77 78 79 80 0
-77 -78 0
-77 -79 0
-77 -80 0
-78 -79 0
-78 -80 0
-79 -80 0
81 0
-82 0
-83 0
-84 0
85 86 87 88 0
-85 -86 0
-85 -87 0
-85 -88 0
-86 -87 0
-86 -88 0
-87 -88 0
129 -89 0
129 -90 0
129 -91 0
129 -92 0
129 -93 0
129 -94 0
129 -95 0
129 -96 0
-129 89 90 91 92 0
-129 -89 -90 0
-129 -89 -91 0
-129 -89 -92 0
-129 -90 -91 0
-129 -90 -92 0
-129 -91 -92 0
-129 93 94 95 96 0
-129 -93 -94 0
-129 -93 -95 0
-129 -93 -96 0
-129 -94 -95 0
-129 -94 -96 0
-129 -95 -96 0
92 -134 0
92 -135 0
92 -136 0
-92 134 135 136 0
-92 -134 -135 0
-92 -134 -136 0
-92 -135 -136 0
130 -97 0
130 -98 0
130 -99 0
130 -100 0
130 -101 0
130 -102 0
130 -103 0
130 -104 0
-130 97 98 99 100 0
-130 -97 -98 0
-130 -97 -99 0
-130 -97 -100 0
-130 -98 -99 0
-130 -98 -100 0
-130 -99 -100 0
-130 101 102 103 104 0
-130 -101 -102 0
-130 -101 -103 0
-130 -101 -104 0
-130 -102 -103 0
-130 -102 -104 0
-130 -103 -104 0
100 -137 0
100 -138 0
100 -139 0
-100 137 138 139 0
-100 -137 -138 0
-100 -137 -139 0
-100 -138 -139 0
131 -105 0
131 -106 0
131 -107 0
131 -108 0
131 -109 0
131 -110 0
131 -111 0
131 -112 0
-131 105 106 107 108 0
-131 -105 -106 0
-131 -105 -107 0
-131 -105 -108 0
-131 -106 -107 0
-131 -106 -108 0
-131 -107 -108 0
-131 109 110 111 112 0
-131 -109 -110 0
-131 -109 -111 0
-131 -109 -112 0
-131 -110 -111 0
-131 -110 -112 0
-131 -111 -112 0
108 -140 0
108 -141 0
108 -142 0
-108 140 141 142 0
-108 -140 -141 0
-108 -140 -142 0
-108 -141 -142 0
132 -113 0
132 -114 0
132 -115 0
132 -116 0
132 -117 0
132 -118 0
132 -119 0
132 -120 0
-132 113 114 115 116 0
-132 -113 -114 0
-132 -113 -115 0
-132 -113 -116 0
-132 -114 -115 0
-132 -114 -116 0
-132 -115 -116 0
-132 117 118 119 120 0
-132 -117 -118 0
-132 -117 -119 0
-132 -117 -120 0
-132 -118 -119 0
-132 -118 -120 0
-132 -119 -120 0
116 -143 0
116 -144 0
116 -145 0
-116 143 144 145 0
-116 -143 -144 0
-116 -143 -145 0
-116 -144 -145 0
133 -121 0
133 -122 0
133 -123 0
133 -124 0
133 -125 0
133 -126 0
133 -127 0
133 -128 0
-133 121 122 123 124 0
-133 -121 -122 0
-133 -121 -123 0
-133 -121 -124 0
-133 -122 -123 0
-133 -122 -124 0
-133 -123 -124 0
-133 125 126 127 128 0
-133 -125 -126 0
-133 -125 -127 0
-133 -125 -128 0
-133 -126 -127 0
-133 -126 -128 0
-133 -127 -128 0
124 -146 0
124 -147 0
124 -148 0
-124 146 147 148 0
-124 -146 -147 0
-124 -146 -148 0
-124 -147 -148 0
129 -130 0
130 -131 0
131 -132 0
132 -133 0
